files/upTests/tupley2/0001.log
[removedDecl] find pain:
                      matrix indexed by [int(1..2),
                                         int(2..3)] of (matrix indexed by [int(3..4)] of (int(1, 2),
                                                                                          int(3, 4),
                                                                                          int(5, 6)),
                                                        int(8..9),
                                                        int(7))
[removedDecl] find pain_tuple1:
                      matrix indexed by [int(1..2), int(2..3), int(3..4)] of (int(1, 2),
                                                                              int(3, 4),
                                                                              int(5, 6))
[simplified] pain[1, 2, 1, 3] = (1, 3, 5)
             ~~>
             pain[1, 2, 1, 3, 1] = (1, 3, 5)[1]
             /\
             (pain[1, 2, 1, 3, 2] = (1, 3, 5)[2] /\ pain[1, 2, 1, 3, 3] = (1, 3, 5)[3])
[simplified] (1, 3, 5)[1]
             ~~>
             1
[simplified] (1, 3, 5)[2]
             ~~>
             3
[simplified] (1, 3, 5)[3]
             ~~>
             5
[simplified] pain[1, 2, 1, 4] = (2, 4, 6)
             ~~>
             pain[1, 2, 1, 4, 1] = (2, 4, 6)[1]
             /\
             (pain[1, 2, 1, 4, 2] = (2, 4, 6)[2] /\ pain[1, 2, 1, 4, 3] = (2, 4, 6)[3])
[simplified] (2, 4, 6)[1]
             ~~>
             2
[simplified] (2, 4, 6)[2]
             ~~>
             4
[simplified] (2, 4, 6)[3]
             ~~>
             6
[simplified] pain[2, 2, 1, 3] = (2, 3, 6)
             ~~>
             pain[2, 2, 1, 3, 1] = (2, 3, 6)[1]
             /\
             (pain[2, 2, 1, 3, 2] = (2, 3, 6)[2] /\ pain[2, 2, 1, 3, 3] = (2, 3, 6)[3])
[simplified] (2, 3, 6)[1]
             ~~>
             2
[simplified] (2, 3, 6)[2]
             ~~>
             3
[simplified] (2, 3, 6)[3]
             ~~>
             6
[simplified] pain[2, 2, 1, 4] = (1, 4, 5)
             ~~>
             pain[2, 2, 1, 4, 1] = (1, 4, 5)[1]
             /\
             (pain[2, 2, 1, 4, 2] = (1, 4, 5)[2] /\ pain[2, 2, 1, 4, 3] = (1, 4, 5)[3])
[simplified] (1, 4, 5)[1]
             ~~>
             1
[simplified] (1, 4, 5)[2]
             ~~>
             4
[simplified] (1, 4, 5)[3]
             ~~>
             5